
Gurobi 9.5.1 (win64) logging started Tue Sep 19 00:03:56 2023

Set parameter LogFile to value "consol_info_5"

Gurobi 9.5.1 (win64) logging started Thu Nov  9 18:10:06 2023

Set parameter LogFile to value "consol_info_5"

Gurobi 9.5.1 (win64) logging started Sat Nov 11 13:10:59 2023

Set parameter LogFile to value "consol_info_5"
